
        $ From http://www.csplib.org/Problems/prob009/data/helmut.pdf
        $ Problem number 39
        $ Sequence length : 24
        language ESSENCE' 1.0
        letting sizemaster be 314
        letting sizes be sequence(2,4,11,12,16,17,18,19,28,29,40,44,47,59,62,64,65,78,79,96,97,105,113,139)
        